100
128
4
24
30
39
57
48
2
42
35
53
34
6
36
29
54
5
34
5
53
12
62
4
57
9
60
48
24
63
57
53
64
39
36
36
2
2
42
3
28
32
58
44
19
36
31
37
53
1
20
51
3
9
63
5
18
37
48
24
11
26
45
41
36
45
3
28
54
36
48
2
59
42
44
47
51
9
4
20
55
46
6
56
27
61
47
52
24
43
58
4
61
27
30
34
38
63
40
4
10
5